1
10
80
6 9
3 4
9 5
10 2
5 7
6 5
9 6
3 1
9 6
4 10
6 5
8 7
4 5
5 10
2 9
10 10
10 6
2 2
2 6
10 2
7 5
9 3
5 9
8 9
2 10
7 7
4 3
10 8
3 5
6 8
4 6
6 3
4 3
4 5
4 2
7 9
9 5
7 2
6 6
9 5
7 2
10 3
5 6
1 3
10 1
7 7
2 5
6 9
5 9
8 7
7 8
8 1
9 9
3 8
6 5
6 3
6 8
10 8
9 7
4 8
10 2
7 1
7 10
5 7
1 6
6 1
6 3
10 1
1 4
3 8
5 8
1 7
5 5
6 4
7 10
2 2
2 2
8 5
6 10
4 10
